(set-logic HORN)

(declare-fun __VERIFIER_assert (Int) Bool)
(declare-fun $main_sum224 (Int Int Int Int Int Int Int Int Int Int Int) Bool)
(declare-fun $main_if655 (Int Int Int Int Int Int Int Int Int Int Int) Bool)
(declare-fun $main_if654 (Int Int Int Int Int Int Int Int Int Int Int) Bool)
(declare-fun $main_if652 (Int Int Int Int Int Int Int Int Int Int Int) Bool)
(declare-fun $main_if659 (Int Int Int Int Int Int Int Int Int Int Int) Bool)
(declare-fun $main_inv224 (Int Int Int Int Int Int Int Int Int Int Int) Bool)
(declare-fun $assume_abort_if_not_pre (Int) Bool)
(declare-fun $main_if657 (Int Int Int Int Int Int Int Int Int Int Int) Bool)
(declare-fun $__VERIFIER_assert_if650 (Int) Bool)
(declare-fun $main_if658 (Int Int Int Int Int Int Int Int Int Int Int) Bool)
(declare-fun $__VERIFIER_assert_ERROR (Int) Bool)
(declare-fun $assume_abort_if_not_if649 (Int) Bool)
(declare-fun $main_if651 (Int Int Int Int Int Int Int Int Int Int Int) Bool)
(declare-fun $main_if653 (Int Int Int Int Int Int Int Int Int Int Int) Bool)
(declare-fun $__VERIFIER_assert_pre (Int) Bool)
(declare-fun $main_if656 (Int Int Int Int Int Int Int Int Int Int Int) Bool)
(declare-fun assume_abort_if_not (Int) Bool)

; if else
(assert
  (forall ((cond Int))
    (=> (and (not (= cond 0))
             ($assume_abort_if_not_pre cond))
        ($assume_abort_if_not_if649 cond))))

; post assume_abort_if_not
(assert
  (forall ((cond14428 Int))
    (=> (and ($assume_abort_if_not_if649 cond14428))
        (assume_abort_if_not cond14428))))

; label ERROR
(assert
  (forall ((cond Int))
    (=> (and (= cond 0)
             ($__VERIFIER_assert_pre cond))
        ($__VERIFIER_assert_ERROR cond))))

; error
(assert
  (forall ((cond14429 Int))
    (=> (and ($__VERIFIER_assert_ERROR cond14429))
        false)))

; if else
(assert
  (forall ((cond Int))
    (=> (and (not (= cond 0))
             ($__VERIFIER_assert_pre cond))
        ($__VERIFIER_assert_if650 cond))))

; post __VERIFIER_assert
(assert
  (forall ((cond14430 Int))
    (=> (and ($__VERIFIER_assert_if650 cond14430))
        (__VERIFIER_assert cond14430))))

; if else
(assert
  (forall (($v2647 Int) ($v6651 Int) ($l645 Int) ($v5650 Int) ($v3648 Int) ($v1646 Int) ($j644 Int) ($i642 Int) ($v4649 Int) ($n641 Int) ($int14432 Int) ($k643 Int))
    (=> (and (<= $int14432 20000001)
             (<= (- 2147483648) $int14432)
             (<= $int14432 2147483647)
             (= $v6651 0)
             (= $v5650 0)
             (= $v4649 0)
             (= $v3648 0)
             (= $v2647 0)
             (= $v1646 0)
             (= $l645 0)
             (= $j644 0)
             (= $k643 0)
             (= $i642 0)
             (= $n641 0))
        ($main_if651 $int14432 $i642 $k643 $j644 $l645 $v1646 $v2647 $v3648 $v4649 $v5650 $v6651))))

; loop entry $main_inv224
(assert
  (forall (($v464914441 Int) ($n64114433 Int) ($v164614438 Int) ($k64314435 Int) ($v665114443 Int) ($v565014442 Int) ($v264714439 Int) ($j64414436 Int) ($l64514437 Int) ($i64214434 Int) ($v364814440 Int))
    (=> (and ($main_if651 $n64114433 $i64214434 $k64314435 $j64414436 $l64514437 $v164614438 $v264714439 $v364814440 $v464914441 $v565014442 $v665114443))
        ($main_inv224 $n64114433 $i64214434 $k64314435 $j64414436 $l64514437 $v164614438 $v264714439 $v364814440 $v464914441 $v565014442 $v665114443))))

; loop term $main_sum224
(assert
  (forall (($n64114444 Int) ($l64514448 Int) ($v464914452 Int) ($v364814451 Int) ($v264714450 Int) ($v665114454 Int) ($k64314446 Int) ($i64214445 Int) ($v164614449 Int) ($j64414447 Int) ($v565014453 Int))
    (=> (and (not (< $l64514448 $n64114444))
             ($main_inv224 $n64114444 $i64214445 $k64314446 $j64414447 $l64514448 $v164614449 $v264714450 $v364814451 $v464914452 $v565014453 $v665114454))
        ($main_sum224 $n64114444 $i64214445 $k64314446 $j64414447 $l64514448 $v164614449 $v264714450 $v364814451 $v464914452 $v565014453 $v665114454))))

; if then
(assert
  (forall (($n64114444 Int) ($l64514448 Int) ($v464914452 Int) ($v364814451 Int) ($v264714450 Int) ($v665114454 Int) ($k64314446 Int) ($i64214445 Int) ($v164614449 Int) ($j64414447 Int) ($v565014453 Int))
    (=> (and (= (mod $l64514448 2) 0)
             (not (= (mod $l64514448 3) 0))
             (not (= (mod $l64514448 4) 0))
             (not (= (mod $l64514448 5) 0))
             (not (= (mod $l64514448 6) 0))
             (not (= (mod $l64514448 7) 0))
             (not (= (mod $l64514448 8) 0))
             (not (= (mod $l64514448 9) 0))
             (< $l64514448 $n64114444)
             ($main_inv224 $n64114444 $i64214445 $k64314446 $j64414447 $l64514448 $v164614449 $v264714450 $v364814451 $v464914452 $v565014453 $v665114454))
        ($main_if652 $n64114444 $i64214445 $k64314446 (+ $j64414447 1) $l64514448 $v164614449 $v264714450 $v364814451 $v464914452 $v565014453 $v665114454))))

; if else
(assert
  (forall (($n64114444 Int) ($l64514448 Int) ($v464914452 Int) ($v364814451 Int) ($v264714450 Int) ($v665114454 Int) ($k64314446 Int) ($i64214445 Int) ($v164614449 Int) ($j64414447 Int) ($v565014453 Int))
    (=> (and (not (= (mod $l64514448 2) 0))
             (not (= (mod $l64514448 3) 0))
             (not (= (mod $l64514448 4) 0))
             (not (= (mod $l64514448 5) 0))
             (not (= (mod $l64514448 6) 0))
             (not (= (mod $l64514448 7) 0))
             (not (= (mod $l64514448 8) 0))
             (not (= (mod $l64514448 9) 0))
             (< $l64514448 $n64114444)
             ($main_inv224 $n64114444 $i64214445 $k64314446 $j64414447 $l64514448 $v164614449 $v264714450 $v364814451 $v464914452 $v565014453 $v665114454))
        ($main_if652 $n64114444 $i64214445 (+ $k64314446 1) $j64414447 $l64514448 $v164614449 $v264714450 $v364814451 $v464914452 $v565014453 $v665114454))))

; if then
(assert
  (forall (($n64114444 Int) ($l64514448 Int) ($v464914452 Int) ($v364814451 Int) ($v264714450 Int) ($v665114454 Int) ($k64314446 Int) ($i64214445 Int) ($v164614449 Int) ($j64414447 Int) ($v565014453 Int))
    (=> (and (= (mod $l64514448 3) 0)
             (not (= (mod $l64514448 4) 0))
             (not (= (mod $l64514448 5) 0))
             (not (= (mod $l64514448 6) 0))
             (not (= (mod $l64514448 7) 0))
             (not (= (mod $l64514448 8) 0))
             (not (= (mod $l64514448 9) 0))
             (< $l64514448 $n64114444)
             ($main_inv224 $n64114444 $i64214445 $k64314446 $j64414447 $l64514448 $v164614449 $v264714450 $v364814451 $v464914452 $v565014453 $v665114454))
        ($main_if653 $n64114444 (+ $i64214445 1) $k64314446 $j64414447 $l64514448 $v164614449 $v264714450 $v364814451 $v464914452 $v565014453 $v665114454))))

; if else
(assert
  (forall (($i64214456 Int) ($v164614460 Int) ($v364814462 Int) ($v264714461 Int) ($n64114455 Int) ($v665114465 Int) ($j64414458 Int) ($k64314457 Int) ($v565014464 Int) ($v464914463 Int) ($l64514459 Int))
    (=> (and ($main_if652 $n64114455 $i64214456 $k64314457 $j64414458 $l64514459 $v164614460 $v264714461 $v364814462 $v464914463 $v565014464 $v665114465))
        ($main_if653 $n64114455 $i64214456 $k64314457 $j64414458 $l64514459 $v164614460 $v264714461 $v364814462 $v464914463 $v565014464 $v665114465))))

; if then
(assert
  (forall (($n64114444 Int) ($l64514448 Int) ($v464914452 Int) ($v364814451 Int) ($v264714450 Int) ($v665114454 Int) ($k64314446 Int) ($i64214445 Int) ($v164614449 Int) ($j64414447 Int) ($v565014453 Int))
    (=> (and (= (mod $l64514448 4) 0)
             (not (= (mod $l64514448 5) 0))
             (not (= (mod $l64514448 6) 0))
             (not (= (mod $l64514448 7) 0))
             (not (= (mod $l64514448 8) 0))
             (not (= (mod $l64514448 9) 0))
             (< $l64514448 $n64114444)
             ($main_inv224 $n64114444 $i64214445 $k64314446 $j64414447 $l64514448 $v164614449 $v264714450 $v364814451 $v464914452 $v565014453 $v665114454))
        ($main_if654 $n64114444 $i64214445 $k64314446 $j64414447 $l64514448 $v164614449 $v264714450 $v364814451 (+ $v464914452 1) $v565014453 $v665114454))))

; if else
(assert
  (forall (($v164614471 Int) ($k64314468 Int) ($v364814473 Int) ($v464914474 Int) ($v565014475 Int) ($i64214467 Int) ($l64514470 Int) ($j64414469 Int) ($n64114466 Int) ($v665114476 Int) ($v264714472 Int))
    (=> (and ($main_if653 $n64114466 $i64214467 $k64314468 $j64414469 $l64514470 $v164614471 $v264714472 $v364814473 $v464914474 $v565014475 $v665114476))
        ($main_if654 $n64114466 $i64214467 $k64314468 $j64414469 $l64514470 $v164614471 $v264714472 $v364814473 $v464914474 $v565014475 $v665114476))))

; if then
(assert
  (forall (($n64114444 Int) ($l64514448 Int) ($v464914452 Int) ($v364814451 Int) ($v264714450 Int) ($v665114454 Int) ($k64314446 Int) ($i64214445 Int) ($v164614449 Int) ($j64414447 Int) ($v565014453 Int))
    (=> (and (= (mod $l64514448 5) 0)
             (not (= (mod $l64514448 6) 0))
             (not (= (mod $l64514448 7) 0))
             (not (= (mod $l64514448 8) 0))
             (not (= (mod $l64514448 9) 0))
             (< $l64514448 $n64114444)
             ($main_inv224 $n64114444 $i64214445 $k64314446 $j64414447 $l64514448 $v164614449 $v264714450 $v364814451 $v464914452 $v565014453 $v665114454))
        ($main_if655 $n64114444 $i64214445 $k64314446 $j64414447 $l64514448 $v164614449 $v264714450 (+ $v364814451 1) $v464914452 $v565014453 $v665114454))))

; if else
(assert
  (forall (($v164614482 Int) ($v364814484 Int) ($j64414480 Int) ($v665114487 Int) ($v565014486 Int) ($i64214478 Int) ($v264714483 Int) ($k64314479 Int) ($l64514481 Int) ($v464914485 Int) ($n64114477 Int))
    (=> (and ($main_if654 $n64114477 $i64214478 $k64314479 $j64414480 $l64514481 $v164614482 $v264714483 $v364814484 $v464914485 $v565014486 $v665114487))
        ($main_if655 $n64114477 $i64214478 $k64314479 $j64414480 $l64514481 $v164614482 $v264714483 $v364814484 $v464914485 $v565014486 $v665114487))))

; if then
(assert
  (forall (($n64114444 Int) ($l64514448 Int) ($v464914452 Int) ($v364814451 Int) ($v264714450 Int) ($v665114454 Int) ($k64314446 Int) ($i64214445 Int) ($v164614449 Int) ($j64414447 Int) ($v565014453 Int))
    (=> (and (= (mod $l64514448 6) 0)
             (not (= (mod $l64514448 7) 0))
             (not (= (mod $l64514448 8) 0))
             (not (= (mod $l64514448 9) 0))
             (< $l64514448 $n64114444)
             ($main_inv224 $n64114444 $i64214445 $k64314446 $j64414447 $l64514448 $v164614449 $v264714450 $v364814451 $v464914452 $v565014453 $v665114454))
        ($main_if656 $n64114444 $i64214445 $k64314446 $j64414447 $l64514448 $v164614449 (+ $v264714450 1) $v364814451 $v464914452 $v565014453 $v665114454))))

; if else
(assert
  (forall (($n64114488 Int) ($j64414491 Int) ($v164614493 Int) ($v464914496 Int) ($v364814495 Int) ($v665114498 Int) ($v264714494 Int) ($i64214489 Int) ($l64514492 Int) ($k64314490 Int) ($v565014497 Int))
    (=> (and ($main_if655 $n64114488 $i64214489 $k64314490 $j64414491 $l64514492 $v164614493 $v264714494 $v364814495 $v464914496 $v565014497 $v665114498))
        ($main_if656 $n64114488 $i64214489 $k64314490 $j64414491 $l64514492 $v164614493 $v264714494 $v364814495 $v464914496 $v565014497 $v665114498))))

; if then
(assert
  (forall (($n64114444 Int) ($l64514448 Int) ($v464914452 Int) ($v364814451 Int) ($v264714450 Int) ($v665114454 Int) ($k64314446 Int) ($i64214445 Int) ($v164614449 Int) ($j64414447 Int) ($v565014453 Int))
    (=> (and (= (mod $l64514448 7) 0)
             (not (= (mod $l64514448 8) 0))
             (not (= (mod $l64514448 9) 0))
             (< $l64514448 $n64114444)
             ($main_inv224 $n64114444 $i64214445 $k64314446 $j64414447 $l64514448 $v164614449 $v264714450 $v364814451 $v464914452 $v565014453 $v665114454))
        ($main_if657 $n64114444 $i64214445 $k64314446 $j64414447 $l64514448 (+ $v164614449 1) $v264714450 $v364814451 $v464914452 $v565014453 $v665114454))))

; if else
(assert
  (forall (($l64514503 Int) ($k64314501 Int) ($j64414502 Int) ($v264714505 Int) ($v665114509 Int) ($v565014508 Int) ($v164614504 Int) ($v364814506 Int) ($n64114499 Int) ($i64214500 Int) ($v464914507 Int))
    (=> (and ($main_if656 $n64114499 $i64214500 $k64314501 $j64414502 $l64514503 $v164614504 $v264714505 $v364814506 $v464914507 $v565014508 $v665114509))
        ($main_if657 $n64114499 $i64214500 $k64314501 $j64414502 $l64514503 $v164614504 $v264714505 $v364814506 $v464914507 $v565014508 $v665114509))))

; if then
(assert
  (forall (($n64114444 Int) ($l64514448 Int) ($v464914452 Int) ($v364814451 Int) ($v264714450 Int) ($v665114454 Int) ($k64314446 Int) ($i64214445 Int) ($v164614449 Int) ($j64414447 Int) ($v565014453 Int))
    (=> (and (= (mod $l64514448 8) 0)
             (not (= (mod $l64514448 9) 0))
             (< $l64514448 $n64114444)
             ($main_inv224 $n64114444 $i64214445 $k64314446 $j64414447 $l64514448 $v164614449 $v264714450 $v364814451 $v464914452 $v565014453 $v665114454))
        ($main_if658 $n64114444 $i64214445 $k64314446 $j64414447 $l64514448 $v164614449 $v264714450 $v364814451 $v464914452 (+ $v565014453 1) $v665114454))))

; if else
(assert
  (forall (($v164614515 Int) ($n64114510 Int) ($v264714516 Int) ($v665114520 Int) ($v565014519 Int) ($v364814517 Int) ($i64214511 Int) ($j64414513 Int) ($v464914518 Int) ($l64514514 Int) ($k64314512 Int))
    (=> (and ($main_if657 $n64114510 $i64214511 $k64314512 $j64414513 $l64514514 $v164614515 $v264714516 $v364814517 $v464914518 $v565014519 $v665114520))
        ($main_if658 $n64114510 $i64214511 $k64314512 $j64414513 $l64514514 $v164614515 $v264714516 $v364814517 $v464914518 $v565014519 $v665114520))))

; if then
(assert
  (forall (($n64114444 Int) ($l64514448 Int) ($v464914452 Int) ($v364814451 Int) ($v264714450 Int) ($v665114454 Int) ($k64314446 Int) ($i64214445 Int) ($v164614449 Int) ($j64414447 Int) ($v565014453 Int))
    (=> (and (= (mod $l64514448 9) 0)
             (< $l64514448 $n64114444)
             ($main_inv224 $n64114444 $i64214445 $k64314446 $j64414447 $l64514448 $v164614449 $v264714450 $v364814451 $v464914452 $v565014453 $v665114454))
        ($main_if659 $n64114444 $i64214445 $k64314446 $j64414447 $l64514448 $v164614449 $v264714450 $v364814451 $v464914452 $v565014453 (+ $v665114454 1)))))

; if else
(assert
  (forall (($n64114521 Int) ($v464914529 Int) ($v264714527 Int) ($j64414524 Int) ($v665114531 Int) ($k64314523 Int) ($l64514525 Int) ($v364814528 Int) ($i64214522 Int) ($v164614526 Int) ($v565014530 Int))
    (=> (and ($main_if658 $n64114521 $i64214522 $k64314523 $j64414524 $l64514525 $v164614526 $v264714527 $v364814528 $v464914529 $v565014530 $v665114531))
        ($main_if659 $n64114521 $i64214522 $k64314523 $j64414524 $l64514525 $v164614526 $v264714527 $v364814528 $v464914529 $v565014530 $v665114531))))

; __VERIFIER_assert precondition
(assert
  (forall (($n64114532 Int) ($k64314534 Int) ($v565014541 Int) ($j64414535 Int) ($v464914540 Int) ($v164614537 Int) ($v264714538 Int) ($l64514536 Int) ($i64214533 Int) ($v364814539 Int) ($v665114542 Int))
    (=> (and ($main_if659 $n64114532 $i64214533 $k64314534 $j64414535 $l64514536 $v164614537 $v264714538 $v364814539 $v464914540 $v565014541 $v665114542))
        ($__VERIFIER_assert_pre (ite (= (+ (+ (+ (+ (+ (+ (+ (+ $i64214533 $j64414535) $k64314534) $v164614537) $v264714538) $v364814539) $v464914540) $v565014541) $v665114542) (+ $l64514536 1)) 1 0)))))

; forwards $main_inv224
(assert
  (forall (($n64114532 Int) ($k64314534 Int) ($v565014541 Int) ($j64414535 Int) ($v464914540 Int) ($v164614537 Int) ($v264714538 Int) ($l64514536 Int) ($i64214533 Int) ($v364814539 Int) ($v665114542 Int))
    (=> (and (__VERIFIER_assert (ite (= (+ (+ (+ (+ (+ (+ (+ (+ $i64214533 $j64414535) $k64314534) $v164614537) $v264714538) $v364814539) $v464914540) $v565014541) $v665114542) (+ $l64514536 1)) 1 0))
             ($main_if659 $n64114532 $i64214533 $k64314534 $j64414535 $l64514536 $v164614537 $v264714538 $v364814539 $v464914540 $v565014541 $v665114542))
        ($main_inv224 $n64114532 $i64214533 $k64314534 $j64414535 (+ $l64514536 1) $v164614537 $v264714538 $v364814539 $v464914540 $v565014541 $v665114542))))

(check-sat)
